(set-option :auto-config false)
(set-option :produce-unsat-cores false)
(set-option :smt.mbqi.max_iterations 10000000)
(set-option :smt.relevancy 0)
(declare-fun c0 () Bool)
(declare-fun c1 () Bool)
(define-fun e2 () Bool (not c1))
(declare-fun c3 () Bool)
(define-fun e4 () Bool (not c3))
(define-fun e5 () Bool (and c0 e2 e4))
(declare-fun c6 () Bool)
(define-fun e7 () Bool (and e5 c6))
(define-fun e8 () Bool (not e7))
(declare-fun c9 () Bool)
(define-fun e10 () Bool (and (=> c6 c9) (=> c9 c6)))
(declare-fun c11 () (_ BitVec 64))
(declare-fun c12 () (_ BitVec 64))
(define-fun e13 () Bool (= c11 c12))
(define-fun e14 () Bool (and c6 e13))
(declare-fun c15 () (_ BitVec 64))
(define-fun e16 () Bool (= c11 c15))
(define-fun e17 () Bool (and c9 e16))
(define-fun e18 () Bool (and (=> e14 e17) (=> e17 e14)))
(define-fun e19 () (_ BitVec 64) (_ bv1024 64))
(define-fun e20 () Bool (bvult c11 e19))
(define-fun e21 () (_ BitVec 64) (_ bv1 64))
(declare-fun c22 ((_ BitVec 64)) (_ BitVec 64))
(define-fun e23 () (_ BitVec 64) (c22 c11))
(define-fun e24 () Bool (= e21 e23))
(define-fun e25 () Bool (and e20 e24))
(declare-fun c26 ((_ BitVec 64) (_ BitVec 64)) (_ BitVec 64))
(define-fun e27 () (_ BitVec 64) (_ bv2 64))
(define-fun e28 () (_ BitVec 64) (c26 c11 e27))
(define-fun e29 () Bool (= e21 e28))
(define-fun e30 () Bool (and e25 e29))
(declare-fun c31 ((_ BitVec 64)) (_ BitVec 64))
(define-fun e32 () (_ BitVec 64) (c31 c11))
(define-fun e33 () Bool (= e21 e32))
(define-fun e34 () Bool (and e20 e33))
(declare-fun c35 ((_ BitVec 64) (_ BitVec 64)) (_ BitVec 64))
(define-fun e36 () (_ BitVec 64) (c35 c11 e27))
(define-fun e37 () Bool (= e21 e36))
(define-fun e38 () Bool (and e34 e37))
(define-fun e39 () Bool (and (=> e30 e38) (=> e38 e30)))
(define-fun e41 ((c40 (_ BitVec 64))) (_ BitVec 64) (_ bv1024 64))
(define-fun e42 ((c40 (_ BitVec 64))) Bool (bvult c40 (e41 c40)))
(define-fun e43 ((c40 (_ BitVec 64))) Bool (not (e42 c40)))
(define-fun e44 ((c40 (_ BitVec 64))) (_ BitVec 64) (_ bv0 64))
(define-fun e45 ((c40 (_ BitVec 64))) (_ BitVec 64) (c22 c40))
(define-fun e46 ((c40 (_ BitVec 64))) Bool (= (e44 c40) (e45 c40)))
(define-fun e47 ((c40 (_ BitVec 64))) Bool (and (e42 c40) (e46 c40)))
(define-fun e48 ((c40 (_ BitVec 64))) Bool (not (e47 c40)))
(declare-fun c49 ((_ BitVec 64)) (_ BitVec 64))
(define-fun e50 ((c40 (_ BitVec 64))) (_ BitVec 64) (c49 c40))
(define-fun e51 ((c40 (_ BitVec 64))) Bool (= c11 (e50 c40)))
(define-fun e52 ((c40 (_ BitVec 64))) Bool (and (e42 c40) (e48 c40) (e51 c40)))
(define-fun e53 ((c40 (_ BitVec 64))) (_ BitVec 64) (c31 c40))
(define-fun e54 ((c40 (_ BitVec 64))) Bool (= (e44 c40) (e53 c40)))
(define-fun e55 ((c40 (_ BitVec 64))) Bool (and (e42 c40) (e54 c40)))
(define-fun e56 ((c40 (_ BitVec 64))) Bool (not (e55 c40)))
(declare-fun c57 ((_ BitVec 64)) (_ BitVec 64))
(define-fun e58 ((c40 (_ BitVec 64))) (_ BitVec 64) (c57 c40))
(define-fun e59 ((c40 (_ BitVec 64))) Bool (= c11 (e58 c40)))
(define-fun e60 ((c40 (_ BitVec 64))) Bool (and (e42 c40) (e56 c40) (e59 c40)))
(define-fun e61 ((c40 (_ BitVec 64))) Bool (and (=> (e52 c40) (e60 c40)) (=> (e60 c40) (e52 c40))))
(define-fun e62 ((c40 (_ BitVec 64))) Bool (or (e43 c40) (e61 c40)))
(define-fun e63 () Bool (forall ((c40 (_ BitVec 64))) (e62 c40)))
(define-fun e64 ((c40 (_ BitVec 64))) Bool (= (e45 c40) (e53 c40)))
(define-fun e65 ((c40 (_ BitVec 64))) Bool (not (e52 c40)))
(define-fun e66 ((c40 (_ BitVec 64))) Bool (or (e64 c40) (e65 c40)))
(define-fun e67 () Bool (forall ((c40 (_ BitVec 64))) (e66 c40)))
(define-fun e69 ((c40 (_ BitVec 64)) (c68 (_ BitVec 64))) (_ BitVec 64) (c26 c40 c68))
(define-fun e70 ((c40 (_ BitVec 64)) (c68 (_ BitVec 64))) (_ BitVec 64) (c35 c40 c68))
(define-fun e71 ((c40 (_ BitVec 64)) (c68 (_ BitVec 64))) Bool (= (e69 c40 c68) (e70 c40 c68)))
(define-fun e72 ((c40 (_ BitVec 64)) (c68 (_ BitVec 64))) (_ BitVec 64) (_ bv512 64))
(define-fun e73 ((c40 (_ BitVec 64)) (c68 (_ BitVec 64))) Bool (bvult c68 (e72 c40 c68)))
(define-fun e74 ((c40 (_ BitVec 64)) (c68 (_ BitVec 64))) (_ BitVec 64) (_ bv1024 64))
(define-fun e75 ((c40 (_ BitVec 64)) (c68 (_ BitVec 64))) Bool (bvult c40 (e74 c40 c68)))
(define-fun e76 ((c40 (_ BitVec 64)) (c68 (_ BitVec 64))) (_ BitVec 64) (_ bv0 64))
(define-fun e77 ((c40 (_ BitVec 64)) (c68 (_ BitVec 64))) (_ BitVec 64) (c22 c40))
(define-fun e78 ((c40 (_ BitVec 64)) (c68 (_ BitVec 64))) Bool (= (e76 c40 c68) (e77 c40 c68)))
(define-fun e79 ((c40 (_ BitVec 64)) (c68 (_ BitVec 64))) Bool (and (e75 c40 c68) (e78 c40 c68)))
(define-fun e80 ((c40 (_ BitVec 64)) (c68 (_ BitVec 64))) Bool (not (e79 c40 c68)))
(define-fun e81 ((c40 (_ BitVec 64)) (c68 (_ BitVec 64))) (_ BitVec 64) (c49 c40))
(define-fun e82 ((c40 (_ BitVec 64)) (c68 (_ BitVec 64))) Bool (= c11 (e81 c40 c68)))
(define-fun e83 ((c40 (_ BitVec 64)) (c68 (_ BitVec 64))) Bool (and (e75 c40 c68) (e80 c40 c68) (e82 c40 c68)))
(define-fun e84 ((c40 (_ BitVec 64)) (c68 (_ BitVec 64))) Bool (and (e73 c40 c68) (e83 c40 c68)))
(define-fun e85 ((c40 (_ BitVec 64)) (c68 (_ BitVec 64))) Bool (not (e84 c40 c68)))
(define-fun e86 ((c40 (_ BitVec 64)) (c68 (_ BitVec 64))) Bool (or (e71 c40 c68) (e85 c40 c68)))
(define-fun e87 () Bool (forall ((c40 (_ BitVec 64)) (c68 (_ BitVec 64))) (e86 c40 c68)))
(declare-fun c88 ((_ BitVec 64) (_ BitVec 64)) (_ BitVec 64))
(define-fun e89 ((c40 (_ BitVec 64)) (c68 (_ BitVec 64))) (_ BitVec 64) (c88 c40 c68))
(declare-fun c90 ((_ BitVec 64) (_ BitVec 64)) (_ BitVec 64))
(define-fun e91 ((c40 (_ BitVec 64)) (c68 (_ BitVec 64))) (_ BitVec 64) (c90 c40 c68))
(define-fun e92 ((c40 (_ BitVec 64)) (c68 (_ BitVec 64))) Bool (= (e89 c40 c68) (e91 c40 c68)))
(declare-fun c93 ((_ BitVec 64) (_ BitVec 64)) Bool)
(define-fun e94 ((c40 (_ BitVec 64)) (c68 (_ BitVec 64))) Bool (c93 c40 c68))
(declare-fun c95 ((_ BitVec 64) (_ BitVec 64)) Bool)
(define-fun e96 ((c40 (_ BitVec 64)) (c68 (_ BitVec 64))) Bool (c95 c40 c68))
(define-fun e97 ((c40 (_ BitVec 64)) (c68 (_ BitVec 64))) Bool (and (=> (e94 c40 c68) (e96 c40 c68)) (=> (e96 c40 c68) (e94 c40 c68))))
(declare-fun c98 ((_ BitVec 64) (_ BitVec 64)) Bool)
(define-fun e99 ((c40 (_ BitVec 64)) (c68 (_ BitVec 64))) Bool (c98 c40 c68))
(declare-fun c100 ((_ BitVec 64) (_ BitVec 64)) Bool)
(define-fun e101 ((c40 (_ BitVec 64)) (c68 (_ BitVec 64))) Bool (c100 c40 c68))
(define-fun e102 ((c40 (_ BitVec 64)) (c68 (_ BitVec 64))) Bool (and (=> (e99 c40 c68) (e101 c40 c68)) (=> (e101 c40 c68) (e99 c40 c68))))
(declare-fun c103 ((_ BitVec 64) (_ BitVec 64)) (_ BitVec 64))
(define-fun e104 ((c40 (_ BitVec 64)) (c68 (_ BitVec 64))) (_ BitVec 64) (c103 c40 c68))
(declare-fun c105 ((_ BitVec 64) (_ BitVec 64)) (_ BitVec 64))
(define-fun e106 ((c40 (_ BitVec 64)) (c68 (_ BitVec 64))) (_ BitVec 64) (c105 c40 c68))
(define-fun e107 ((c40 (_ BitVec 64)) (c68 (_ BitVec 64))) Bool (= (e104 c40 c68) (e106 c40 c68)))
(define-fun e108 ((c40 (_ BitVec 64)) (c68 (_ BitVec 64))) Bool (and (e92 c40 c68) (e97 c40 c68) (e102 c40 c68) (e107 c40 c68)))
(define-fun e109 ((c40 (_ BitVec 64)) (c68 (_ BitVec 64))) Bool (or (e108 c40 c68) (e85 c40 c68)))
(define-fun e110 () Bool (forall ((c40 (_ BitVec 64)) (c68 (_ BitVec 64))) (e109 c40 c68)))
(define-fun e111 () Bool (and e63 e67 e87 e110))
(define-fun e112 () Bool (not e30))
(define-fun e113 () Bool (or e111 e112))
(declare-fun c114 () (_ BitVec 64))
(declare-fun c115 () (_ BitVec 64))
(define-fun e116 () Bool (= c114 c115))
(declare-fun c117 () (_ BitVec 64))
(declare-fun c118 () (_ BitVec 64))
(define-fun e119 () Bool (= c117 c118))
(declare-fun c120 () (_ BitVec 64))
(declare-fun c121 () (_ BitVec 64))
(define-fun e122 () Bool (= c120 c121))
(declare-fun c123 () (_ BitVec 64))
(declare-fun c124 () (_ BitVec 64))
(define-fun e125 () Bool (= c123 c124))
(declare-fun c126 () (_ BitVec 64))
(declare-fun c127 () (_ BitVec 64))
(define-fun e128 () Bool (= c126 c127))
(declare-fun c129 () (_ BitVec 64))
(declare-fun c130 () (_ BitVec 64))
(define-fun e131 () Bool (= c129 c130))
(declare-fun c132 () (_ BitVec 64))
(declare-fun c133 () (_ BitVec 64))
(define-fun e134 () Bool (= c132 c133))
(declare-fun c135 () (_ BitVec 64))
(declare-fun c136 () (_ BitVec 64))
(define-fun e137 () Bool (= c135 c136))
(declare-fun c138 () (_ BitVec 64))
(declare-fun c139 () (_ BitVec 64))
(define-fun e140 () Bool (= c138 c139))
(declare-fun c141 () (_ BitVec 64))
(declare-fun c142 () (_ BitVec 64))
(define-fun e143 () Bool (= c141 c142))
(declare-fun c144 () (_ BitVec 64))
(declare-fun c145 () (_ BitVec 64))
(define-fun e146 () Bool (= c144 c145))
(declare-fun c147 () (_ BitVec 64))
(declare-fun c148 () (_ BitVec 64))
(define-fun e149 () Bool (= c147 c148))
(declare-fun c150 () (_ BitVec 64))
(declare-fun c151 () (_ BitVec 64))
(define-fun e152 () Bool (= c150 c151))
(declare-fun c153 () (_ BitVec 64))
(declare-fun c154 () (_ BitVec 64))
(define-fun e155 () Bool (= c153 c154))
(declare-fun c156 () (_ BitVec 64))
(declare-fun c157 () (_ BitVec 64))
(define-fun e158 () Bool (= c156 c157))
(declare-fun c159 () (_ BitVec 64))
(declare-fun c160 () (_ BitVec 64))
(define-fun e161 () Bool (= c159 c160))
(declare-fun c162 () (_ BitVec 64))
(declare-fun c163 () (_ BitVec 64))
(define-fun e164 () Bool (= c162 c163))
(declare-fun c165 () (_ BitVec 64))
(declare-fun c166 () (_ BitVec 64))
(define-fun e167 () Bool (= c165 c166))
(declare-fun c168 () (_ BitVec 64))
(declare-fun c169 () (_ BitVec 64))
(define-fun e170 () Bool (= c168 c169))
(declare-fun c171 () (_ BitVec 64))
(declare-fun c172 () (_ BitVec 64))
(define-fun e173 () Bool (= c171 c172))
(declare-fun c174 () (_ BitVec 64))
(declare-fun c175 () (_ BitVec 64))
(define-fun e176 () Bool (= c174 c175))
(declare-fun c177 () (_ BitVec 64))
(declare-fun c178 () (_ BitVec 64))
(define-fun e179 () Bool (= c177 c178))
(declare-fun c180 () (_ BitVec 64))
(declare-fun c181 () (_ BitVec 64))
(define-fun e182 () Bool (= c180 c181))
(declare-fun c183 () (_ BitVec 64))
(declare-fun c184 () (_ BitVec 64))
(define-fun e185 () Bool (= c183 c184))
(declare-fun c186 () (_ BitVec 64))
(declare-fun c187 () (_ BitVec 64))
(define-fun e188 () Bool (= c186 c187))
(declare-fun c189 () (_ BitVec 64))
(declare-fun c190 () (_ BitVec 64))
(define-fun e191 () Bool (= c189 c190))
(declare-fun c192 () (_ BitVec 64))
(declare-fun c193 () (_ BitVec 64))
(define-fun e194 () Bool (= c192 c193))
(declare-fun c195 () (_ BitVec 64))
(declare-fun c196 () (_ BitVec 64))
(define-fun e197 () Bool (= c195 c196))
(declare-fun c198 () (_ BitVec 64))
(declare-fun c199 () (_ BitVec 64))
(define-fun e200 () Bool (= c198 c199))
(declare-fun c201 () (_ BitVec 64))
(declare-fun c202 () (_ BitVec 64))
(define-fun e203 () Bool (= c201 c202))
(declare-fun c204 () (_ BitVec 64))
(declare-fun c205 () (_ BitVec 64))
(define-fun e206 () Bool (= c204 c205))
(declare-fun c207 () (_ BitVec 64))
(declare-fun c208 () (_ BitVec 64))
(define-fun e209 () Bool (= c207 c208))
(declare-fun c210 () (_ BitVec 64))
(declare-fun c211 () (_ BitVec 64))
(define-fun e212 () Bool (= c210 c211))
(declare-fun c213 () (_ BitVec 64))
(declare-fun c214 () (_ BitVec 64))
(define-fun e215 () Bool (= c213 c214))
(declare-fun c216 () (_ BitVec 64))
(declare-fun c217 () (_ BitVec 64))
(define-fun e218 () Bool (= c216 c217))
(declare-fun c219 () (_ BitVec 64))
(declare-fun c220 () (_ BitVec 64))
(define-fun e221 () Bool (= c219 c220))
(declare-fun c222 () (_ BitVec 64))
(declare-fun c223 () (_ BitVec 64))
(define-fun e224 () Bool (= c222 c223))
(declare-fun c225 () (_ BitVec 64))
(declare-fun c226 () (_ BitVec 64))
(define-fun e227 () Bool (= c225 c226))
(declare-fun c228 () (_ BitVec 64))
(declare-fun c229 () (_ BitVec 64))
(define-fun e230 () Bool (= c228 c229))
(declare-fun c231 () (_ BitVec 64))
(declare-fun c232 () (_ BitVec 64))
(define-fun e233 () Bool (= c231 c232))
(declare-fun c234 () (_ BitVec 64))
(declare-fun c235 () (_ BitVec 64))
(define-fun e236 () Bool (= c234 c235))
(define-fun e237 () (_ BitVec 64) (_ bv4 64))
(declare-fun c238 () (_ BitVec 64))
(define-fun e239 () (_ BitVec 64) (bvadd e237 c238))
(declare-fun c240 () (_ BitVec 64))
(define-fun e241 () (_ BitVec 64) (bvadd e237 c240))
(define-fun e242 () Bool (= e239 e241))
(define-fun e243 () Bool (and e119 e122 e125 e128 e131 e134 e137 e140 e143 e146 e149 e152 e155 e158 e161 e164 e167 e170 e173 e176 e179 e182 e185 e188 e191 e194 e197 e200 e203 e206 e209 e212 e215 e218 e221 e224 e227 e230 e233 e236 e242))
(define-fun e244 () Bool (and c6 c9 e243))
(define-fun e245 () Bool (not c6))
(define-fun e246 () Bool (not c9))
(define-fun e247 () Bool (and e245 e246 e243))
(define-fun e248 () Bool (or e244 e247))
(define-fun e249 () Bool (and e116 e248))
(define-fun e250 () Bool (not e14))
(define-fun e251 () Bool (or e249 e250))
(define-fun e252 () Bool (and e10 e18 e39 e113 e251))
(define-fun e254 ((c253 (_ BitVec 64))) (_ BitVec 64) (c49 c253))
(define-fun e255 ((c253 (_ BitVec 64))) (_ BitVec 64) (_ bv1024 64))
(define-fun e256 ((c253 (_ BitVec 64))) Bool (bvult (e254 c253) (e255 c253)))
(define-fun e257 ((c253 (_ BitVec 64))) (_ BitVec 64) (_ bv1 64))
(define-fun e258 ((c253 (_ BitVec 64))) (_ BitVec 64) (c22 (e254 c253)))
(define-fun e259 ((c253 (_ BitVec 64))) Bool (= (e257 c253) (e258 c253)))
(define-fun e260 ((c253 (_ BitVec 64))) Bool (and (e256 c253) (e259 c253)))
(define-fun e261 ((c253 (_ BitVec 64))) Bool (bvult c253 (e255 c253)))
(define-fun e262 ((c253 (_ BitVec 64))) (_ BitVec 64) (_ bv0 64))
(define-fun e263 ((c253 (_ BitVec 64))) (_ BitVec 64) (c22 c253))
(define-fun e264 ((c253 (_ BitVec 64))) Bool (= (e262 c253) (e263 c253)))
(define-fun e265 ((c253 (_ BitVec 64))) Bool (not (e264 c253)))
(define-fun e266 ((c253 (_ BitVec 64))) Bool (and (e261 c253) (e265 c253)))
(define-fun e267 ((c253 (_ BitVec 64))) Bool (not (e266 c253)))
(define-fun e268 ((c253 (_ BitVec 64))) Bool (or (e260 c253) (e267 c253)))
(define-fun e269 () Bool (forall ((c253 (_ BitVec 64))) (e268 c253)))
(define-fun e271 ((c270 (_ BitVec 64))) (_ BitVec 64) (c49 c270))
(define-fun e272 ((c270 (_ BitVec 64))) Bool (= c270 (e271 c270)))
(define-fun e273 ((c270 (_ BitVec 64))) (_ BitVec 64) (_ bv1024 64))
(define-fun e274 ((c270 (_ BitVec 64))) Bool (bvult c270 (e273 c270)))
(define-fun e275 ((c270 (_ BitVec 64))) (_ BitVec 64) (_ bv1 64))
(define-fun e276 ((c270 (_ BitVec 64))) (_ BitVec 64) (c22 c270))
(define-fun e277 ((c270 (_ BitVec 64))) Bool (= (e275 c270) (e276 c270)))
(define-fun e278 ((c270 (_ BitVec 64))) Bool (and (e274 c270) (e277 c270)))
(define-fun e279 ((c270 (_ BitVec 64))) Bool (not (e278 c270)))
(define-fun e280 ((c270 (_ BitVec 64))) Bool (or (e272 c270) (e279 c270)))
(define-fun e281 () Bool (forall ((c270 (_ BitVec 64))) (e280 c270)))
(define-fun e282 ((c270 (_ BitVec 64))) Bool (bvult (e271 c270) (e273 c270)))
(define-fun e283 ((c270 (_ BitVec 64))) (_ BitVec 64) (_ bv0 64))
(define-fun e284 ((c270 (_ BitVec 64))) Bool (= (e283 c270) (e276 c270)))
(define-fun e285 ((c270 (_ BitVec 64))) Bool (not (e284 c270)))
(define-fun e286 ((c270 (_ BitVec 64))) Bool (and (e274 c270) (e285 c270)))
(define-fun e287 ((c270 (_ BitVec 64))) Bool (not (e286 c270)))
(define-fun e288 ((c270 (_ BitVec 64))) Bool (or (e282 c270) (e287 c270)))
(define-fun e289 () Bool (forall ((c270 (_ BitVec 64))) (e288 c270)))
(define-fun e290 () Bool (bvult c114 e19))
(define-fun e291 () (_ BitVec 64) (c22 c114))
(define-fun e292 () Bool (= e27 e291))
(define-fun e293 () Bool (and e290 e292))
(define-fun e294 () (_ BitVec 64) (c49 c114))
(define-fun e295 () Bool (= c12 e294))
(define-fun e296 () (_ BitVec 64) (c26 c12 e27))
(define-fun e297 () Bool (= e21 e296))
(define-fun e298 () Bool (and e293 e295 e297))
(define-fun e299 () Bool (or e245 e298))
(define-fun e300 () Bool (and e269 e281 e289 e290 e299))
(define-fun e301 ((c253 (_ BitVec 64))) (_ BitVec 64) (c57 c253))
(define-fun e302 ((c253 (_ BitVec 64))) Bool (bvult (e301 c253) (e255 c253)))
(define-fun e303 ((c253 (_ BitVec 64))) (_ BitVec 64) (c31 (e301 c253)))
(define-fun e304 ((c253 (_ BitVec 64))) Bool (= (e257 c253) (e303 c253)))
(define-fun e305 ((c253 (_ BitVec 64))) Bool (and (e302 c253) (e304 c253)))
(define-fun e306 ((c253 (_ BitVec 64))) (_ BitVec 64) (c31 c253))
(define-fun e307 ((c253 (_ BitVec 64))) Bool (= (e262 c253) (e306 c253)))
(define-fun e308 ((c253 (_ BitVec 64))) Bool (not (e307 c253)))
(define-fun e309 ((c253 (_ BitVec 64))) Bool (and (e261 c253) (e308 c253)))
(define-fun e310 ((c253 (_ BitVec 64))) Bool (not (e309 c253)))
(define-fun e311 ((c253 (_ BitVec 64))) Bool (or (e305 c253) (e310 c253)))
(define-fun e312 () Bool (forall ((c253 (_ BitVec 64))) (e311 c253)))
(define-fun e313 ((c270 (_ BitVec 64))) (_ BitVec 64) (c57 c270))
(define-fun e314 ((c270 (_ BitVec 64))) Bool (= c270 (e313 c270)))
(define-fun e315 ((c270 (_ BitVec 64))) (_ BitVec 64) (c31 c270))
(define-fun e316 ((c270 (_ BitVec 64))) Bool (= (e275 c270) (e315 c270)))
(define-fun e317 ((c270 (_ BitVec 64))) Bool (and (e274 c270) (e316 c270)))
(define-fun e318 ((c270 (_ BitVec 64))) Bool (not (e317 c270)))
(define-fun e319 ((c270 (_ BitVec 64))) Bool (or (e314 c270) (e318 c270)))
(define-fun e320 () Bool (forall ((c270 (_ BitVec 64))) (e319 c270)))
(define-fun e321 ((c270 (_ BitVec 64))) Bool (bvult (e313 c270) (e273 c270)))
(define-fun e322 ((c270 (_ BitVec 64))) Bool (= (e283 c270) (e315 c270)))
(define-fun e323 ((c270 (_ BitVec 64))) Bool (not (e322 c270)))
(define-fun e324 ((c270 (_ BitVec 64))) Bool (and (e274 c270) (e323 c270)))
(define-fun e325 ((c270 (_ BitVec 64))) Bool (not (e324 c270)))
(define-fun e326 ((c270 (_ BitVec 64))) Bool (or (e321 c270) (e325 c270)))
(define-fun e327 () Bool (forall ((c270 (_ BitVec 64))) (e326 c270)))
(define-fun e328 () Bool (bvult c115 e19))
(define-fun e329 () (_ BitVec 64) (c31 c115))
(define-fun e330 () Bool (= e27 e329))
(define-fun e331 () Bool (and e328 e330))
(define-fun e332 () (_ BitVec 64) (c57 c115))
(define-fun e333 () Bool (= c15 e332))
(define-fun e334 () (_ BitVec 64) (c35 c15 e27))
(define-fun e335 () Bool (= e21 e334))
(define-fun e336 () Bool (and e331 e333 e335))
(define-fun e337 () Bool (or e246 e336))
(define-fun e338 () Bool (and e312 e320 e327 e328 e337))
(define-fun e339 () Bool (= c12 c15))
(define-fun e340 () Bool (and c9 e339))
(define-fun e341 () Bool (and (=> c6 e340) (=> e340 c6)))
(declare-fun c342 () (_ BitVec 64))
(declare-fun c343 () (_ BitVec 64))
(define-fun e344 () Bool (= c342 c343))
(define-fun e345 () Bool (= c238 c240))
(define-fun e346 () Bool (and e119 e122 e125 e128 e131 e134 e137 e140 e143 e344 e146 e149 e152 e155 e158 e161 e164 e167 e170 e173 e176 e179 e182 e185 e188 e191 e194 e197 e200 e203 e206 e209 e212 e215 e218 e221 e224 e227 e230 e345 e233 e236))
(define-fun e347 () Bool (and e346 e116))
(define-fun e348 () Bool (or e245 e347))
(define-fun e349 () Bool (bvult c12 e19))
(define-fun e350 () (_ BitVec 64) (c22 c12))
(define-fun e351 () Bool (= e21 e350))
(define-fun e352 () Bool (and e349 e351))
(define-fun e353 () Bool (and e297 e352))
(define-fun e354 () (_ BitVec 64) (c31 c12))
(define-fun e355 () Bool (= e21 e354))
(define-fun e356 () Bool (and e349 e355))
(define-fun e357 () (_ BitVec 64) (c35 c12 e27))
(define-fun e358 () Bool (= e21 e357))
(define-fun e359 () Bool (and e356 e358))
(define-fun e360 () Bool (and (=> e353 e359) (=> e359 e353)))
(define-fun e361 ((c40 (_ BitVec 64))) Bool (= c12 (e50 c40)))
(define-fun e362 ((c40 (_ BitVec 64))) Bool (and (e42 c40) (e48 c40) (e361 c40)))
(define-fun e363 ((c40 (_ BitVec 64))) Bool (= c12 (e58 c40)))
(define-fun e364 ((c40 (_ BitVec 64))) Bool (and (e42 c40) (e56 c40) (e363 c40)))
(define-fun e365 ((c40 (_ BitVec 64))) Bool (and (=> (e362 c40) (e364 c40)) (=> (e364 c40) (e362 c40))))
(define-fun e366 ((c40 (_ BitVec 64))) Bool (or (e365 c40) (e43 c40)))
(define-fun e367 () Bool (forall ((c40 (_ BitVec 64))) (e366 c40)))
(define-fun e368 ((c40 (_ BitVec 64))) Bool (not (e362 c40)))
(define-fun e369 ((c40 (_ BitVec 64))) Bool (or (e64 c40) (e368 c40)))
(define-fun e370 () Bool (forall ((c40 (_ BitVec 64))) (e369 c40)))
(define-fun e371 ((c40 (_ BitVec 64)) (c68 (_ BitVec 64))) Bool (= c12 (e81 c40 c68)))
(define-fun e372 ((c40 (_ BitVec 64)) (c68 (_ BitVec 64))) Bool (and (e75 c40 c68) (e80 c40 c68) (e371 c40 c68)))
(define-fun e373 ((c40 (_ BitVec 64)) (c68 (_ BitVec 64))) Bool (and (e372 c40 c68) (e73 c40 c68)))
(define-fun e374 ((c40 (_ BitVec 64)) (c68 (_ BitVec 64))) Bool (not (e373 c40 c68)))
(define-fun e375 ((c40 (_ BitVec 64)) (c68 (_ BitVec 64))) Bool (or (e71 c40 c68) (e374 c40 c68)))
(define-fun e376 () Bool (forall ((c40 (_ BitVec 64)) (c68 (_ BitVec 64))) (e375 c40 c68)))
(define-fun e377 ((c40 (_ BitVec 64)) (c68 (_ BitVec 64))) Bool (or (e374 c40 c68) (e108 c40 c68)))
(define-fun e378 () Bool (forall ((c40 (_ BitVec 64)) (c68 (_ BitVec 64))) (e377 c40 c68)))
(define-fun e379 () Bool (and e367 e370 e376 e378))
(define-fun e380 () Bool (not e353))
(define-fun e381 () Bool (or e379 e380))
(define-fun e382 () Bool (and e10 e341 e348 e360 e381))
(define-fun e383 () Bool (or e347 e250))
(define-fun e384 () Bool (and e10 e18 e383 e39 e113))
(define-fun e385 () Bool (and e300 e338 e382 e13 e384))
(define-fun e386 () Bool (not e385))
(define-fun e387 () Bool (or e252 e386))
(define-fun e388 () Bool (or e8 e387))
(define-fun e389 () Bool (not e388))
(assert e389)
(check-sat)
